
  32    4
  10   10   10   10

   0   0   0   0   0   6 2 3 4 9 11 17 
   9  10  10  10  10   6 16 15 14 8 7 6 
   3  10  10  10  10   4 12 10 8 5 
   3  10  10  10  10   5 31 22 14 13 8 
   8  10  10  10  10   3 29 14 6 
   8  10  10  10  10   8 31 30 27 26 23 22 18 13 
   2  10  10  10  10   9 30 29 28 27 26 23 22 21 18 
   2  10  10  10  10   8 30 29 28 27 23 21 20 18 
   5  10  10  10  10   5 27 23 22 19 14 
   5  10  10  10  10   3 26 23 13 
   4  10  10  10  10   4 31 30 22 19 
   4  10  10  10  10   4 29 26 23 21 
   9  10  10  10  10   3 28 21 19 
   1  10  10  10  10   3 24 21 18 
   7  10  10  10  10   3 29 23 22 
   6  10  10  10  10   2 25 22 
   2  10  10  10  10   2 27 22 
   6  10  10  10  10   1 25 
   1  10  10  10  10   1 24 
   3  10  10  10  10   1 26 
   9  10  10  10  10   1 32
   7  10  10  10  10   1 32
  10  10  10  10  10   1 32
  10  10  10  10  10   1 32
  10  10  10  10  10   1 32
   4  10  10  10  10   1 32
   6  10  10  10  10   1 32
  10  10  10  10  10   1 32
   2  10  10  10  10   1 32
   2  10  10  10  10   1 32
  10  10  10  10  10   1 32
   0   0   0   0   0   0 
